GLPSOL: GLPK LP/MIP Solver, v4.65
Parameter(s) specified in the command line:
 --cpxlp /tmp/9c55131be8b34860ad9f91456f10dfcb-pulp.lp -o /tmp/9c55131be8b34860ad9f91456f10dfcb-pulp.sol
 --tmlim 15
Reading problem data from '/tmp/9c55131be8b34860ad9f91456f10dfcb-pulp.lp'...
24754 rows, 7200 columns, 66585 non-zeros
35598 lines were read
GLPK Simplex Optimizer, v4.65
24754 rows, 7200 columns, 66585 non-zeros
Preprocessing...
4463 rows, 2359 columns, 13671 non-zeros
Scaling...
 A: min|aij| =  5.000e-01  max|aij| =  5.000e+00  ratio =  1.000e+01
Problem data seem to be well scaled
Constructing initial basis...
Size of triangular part is 4444
      0: obj =   1.000000000e+01 inf =   8.215e+02 (272)
    861: obj =   1.457894737e+01 inf =   9.437e-16 (0) 6
*   909: obj =   1.600000000e+01 inf =   7.680e-15 (0)
OPTIMAL LP SOLUTION FOUND
Time used:   0.1 secs
Memory used: 17.3 Mb (18102072 bytes)
Writing basic solution to '/tmp/9c55131be8b34860ad9f91456f10dfcb-pulp.sol'...
Welcome to the CBC MILP Solver 
Version: 2.10.10 
Build Date: Apr 19 2023 

command line - cbc /tmp/05f9462be17540d28086ba854f5c474d-pulp.mps max sec 15 timeMode elapsed branch printingOptions all solution /tmp/05f9462be17540d28086ba854f5c474d-pulp.sol (default strategy 1)
At line 2 NAME          MODEL
At line 3 ROWS
At line 24759 COLUMNS
At line 106772 RHS
At line 131527 BOUNDS
At line 138728 ENDATA
Problem MODEL has 24754 rows, 7200 columns and 66585 elements
Coin0008I MODEL read with 0 errors
seconds was changed from 1e+100 to 15
Option for timeMode changed from cpu to elapsed
Continuous objective value is 16 - 0.05 seconds
Cgl0002I 3083 variables fixed
Cgl0003I 264 fixed, 0 tightened bounds, 1778 strengthened rows, 637 substitutions
Cgl0003I 0 fixed, 0 tightened bounds, 578 strengthened rows, 20 substitutions
Cgl0003I 0 fixed, 0 tightened bounds, 266 strengthened rows, 0 substitutions
Cgl0003I 0 fixed, 0 tightened bounds, 172 strengthened rows, 0 substitutions
Cgl0003I 0 fixed, 0 tightened bounds, 30 strengthened rows, 0 substitutions
Cgl0003I 0 fixed, 0 tightened bounds, 30 strengthened rows, 0 substitutions
Cgl0003I 0 fixed, 0 tightened bounds, 10 strengthened rows, 0 substitutions
Cgl0003I 0 fixed, 0 tightened bounds, 10 strengthened rows, 0 substitutions
Cgl0003I 0 fixed, 0 tightened bounds, 10 strengthened rows, 0 substitutions
Cgl0003I 0 fixed, 0 tightened bounds, 10 strengthened rows, 0 substitutions
Cgl0004I processed model has 1830 rows, 1693 columns (1693 integer (1667 of which binary)) and 8083 elements
Cutoff increment increased from 1e-05 to 0.9999
Cbc0045I 58 integer variables out of 1693 objects (1693 integer) have cost of -1 - high priority
Cbc0045I branch on satisfied N create fake objective Y random cost Y
Cbc0038I Initial state - 48 integers unsatisfied sum - 24
Cbc0038I Pass   1: suminf.    5.00000 (10) obj. 16 iterations 301
Cbc0038I Solution found of 16
Cbc0038I Cleaned solution of 16
Cbc0038I Before mini branch and bound, 1630 integers at bound fixed and 0 continuous
Cbc0038I Mini branch and bound did not improve solution (0.23 seconds)
Cbc0038I After 0.23 seconds - Feasibility pump exiting with objective of 16 - took 0.01 seconds
Cbc0012I Integer solution of 16 found by feasibility pump after 0 iterations and 0 nodes (0.23 seconds)
Cbc0001I Search completed - best objective 15.9999999999998, took 0 iterations and 0 nodes (0.24 seconds)
Cbc0035I Maximum depth 0, 0 variables fixed on reduced cost
Cuts at root node changed objective from 16 to 16
Probing was tried 0 times and created 0 cuts of which 0 were active after adding rounds of cuts (0.000 seconds)
Gomory was tried 0 times and created 0 cuts of which 0 were active after adding rounds of cuts (0.000 seconds)
Knapsack was tried 0 times and created 0 cuts of which 0 were active after adding rounds of cuts (0.000 seconds)
Clique was tried 0 times and created 0 cuts of which 0 were active after adding rounds of cuts (0.000 seconds)
MixedIntegerRounding2 was tried 0 times and created 0 cuts of which 0 were active after adding rounds of cuts (0.000 seconds)
FlowCover was tried 0 times and created 0 cuts of which 0 were active after adding rounds of cuts (0.000 seconds)
TwoMirCuts was tried 0 times and created 0 cuts of which 0 were active after adding rounds of cuts (0.000 seconds)
ZeroHalf was tried 0 times and created 0 cuts of which 0 were active after adding rounds of cuts (0.000 seconds)

Result - Optimal solution found

Objective value:                16.00000000
Enumerated nodes:               0
Total iterations:               0
Time (CPU seconds):             0.24
Time (Wallclock seconds):       0.27

Option for printingOptions changed from normal to all
Total time (CPU seconds):       0.56   (Wallclock seconds):       0.38

